(declare-const y0 Real)
(declare-const y1 Real)
(declare-const y2 Real)
(declare-const y3 Real)
(declare-const y4 Real)
(assert (= y3 (+ y0 y1)))
(assert (= (< 53 8) true))
(assert (< 44 53))
(assert (= true (< y1 (+ (+ (+ 82 y2) y0) y4))))
(assert (< 15 y0))
(assert (= 43 31))
(assert (= 59 y4))
(assert (= (= y4 y2) (< (+ 38 70) (+ 13 8))))
(assert (< 51 (+ (+ y0 57) (+ 58 86))))
(check-sat)
